qbf_easy_train/easy_672_SAT.qdimacs
p cnf 25 64
a 13 5 7 0
e 1 2 3 4 6 8 9 10 11 12 14 15 16 17 18 19 20 21 22 23 24 25 0
3 -1 0
3 -2 0
1 2 -3 0
1 5 -6 0
-1 -5 -6 0
1 -5 6 0
-1 5 6 0
-10 -8 0
-10 9 0
8 -9 10 0
-7 -10 -11 0
7 10 -11 0
-7 10 11 0
7 -10 11 0
12 4 0
12 -11 0
-4 11 -12 0
6 -12 -13 0
-6 12 -13 0
6 12 13 0
-6 -12 13 0
14 4 0
14 13 0
-4 -13 -14 0
-3 -14 -15 0
3 14 -15 0
-3 14 15 0
3 -14 15 0
-9 -6 -16 0
9 6 -16 0
-9 6 16 0
9 -6 16 0
-17 4 0
-17 -4 0
-17 4 -18 0
17 -4 -18 0
-17 -4 18 0
17 4 18 0
20 -19 0
20 19 0
18 20 -21 0
-18 -20 -21 0
18 -20 21 0
-18 20 21 0
22 16 0
22 -21 0
-16 21 -22 0
-23 -8 0
-23 -11 0
8 11 23 0
22 -23 -24 0
-22 23 -24 0
22 23 24 0
-22 -23 24 0
25 15 0
25 -24 0
-15 24 -25 0
25 -10 -12 -4 0
14 -16 18 8 -19 0
21 4 -7 20 0
-2 12 -8 1 0
12 -25 -24 0
22 24 -20 2 17 6 16 0
25 0
