sat_easy_train/easy_672_SAT.dimacs
p cnf 114 378
1 2 -3 0
-1 -2 -3 0
1 -2 3 0
-1 2 3 0
-5 3 0
-5 4 0
-3 -4 5 0
7 6 0
7 4 0
-6 -4 -7 0
-8 -7 0
-8 3 0
7 -3 8 0
5 8 -9 0
-5 -8 -9 0
5 -8 9 0
-5 8 9 0
-10 -11 -12 0
10 11 -12 0
-10 11 12 0
10 -11 12 0
15 -14 0
15 -2 0
14 2 -15 0
-17 -15 0
-17 16 0
15 -16 17 0
18 13 0
18 -17 0
-13 17 -18 0
-15 13 -19 0
15 -13 -19 0
-15 -13 19 0
15 13 19 0
-20 18 0
-20 -19 0
-18 19 20 0
-12 -20 -21 0
12 20 -21 0
-12 20 21 0
12 -20 21 0
4 -2 -22 0
-4 2 -22 0
4 2 22 0
-4 -2 22 0
-24 -19 0
-24 -23 0
19 23 24 0
25 22 0
25 -24 0
-22 24 -25 0
-26 -21 0
-26 25 0
21 -25 26 0
27 -9 0
27 26 0
9 -26 -27 0
14 -15 -29 0
-14 15 -29 0
14 15 29 0
-14 -15 29 0
28 29 -30 0
-28 -29 -30 0
28 -29 30 0
-28 29 30 0
-6 -14 -31 0
6 14 -31 0
-6 14 31 0
6 -14 31 0
-32 -28 0
-32 31 0
28 -31 32 0
33 10 0
33 32 0
-10 -32 -33 0
-30 33 -34 0
30 -33 -34 0
-30 -33 34 0
30 33 34 0
35 -27 0
35 -34 0
27 34 -35 0
-11 -13 -36 0
11 13 -36 0
-11 13 36 0
11 -13 36 0
-6 -36 -37 0
6 36 -37 0
-6 36 37 0
6 -36 37 0
-28 -37 -38 0
28 37 -38 0
-28 37 38 0
28 -37 38 0
-39 10 0
-39 38 0
-10 -38 39 0
35 -39 -40 0
-35 39 -40 0
35 39 40 0
-35 -39 40 0
41 6 0
41 -3 0
-6 3 -41 0
-44 -42 0
-44 -43 0
42 43 44 0
45 -44 0
45 -23 0
44 23 -45 0
7 45 -46 0
-7 -45 -46 0
7 -45 46 0
-7 45 46 0
-47 -14 0
-47 46 0
14 -46 47 0
-41 -47 -48 0
41 47 -48 0
-41 47 48 0
41 -47 48 0
49 -45 0
49 -43 0
45 43 -49 0
-50 -48 0
-50 -49 0
48 49 50 0
-51 -40 0
-51 -50 0
40 50 51 0
52 -4 0
52 -6 0
4 6 -52 0
53 -10 0
53 52 0
10 -52 -53 0
54 14 0
54 23 0
-14 -23 -54 0
20 54 -55 0
-20 -54 -55 0
20 -54 55 0
-20 54 55 0
56 42 0
56 15 0
-42 -15 -56 0
-57 55 0
-57 56 0
-55 -56 57 0
58 44 0
58 -3 0
-44 3 -58 0
-59 -57 0
-59 58 0
57 -58 59 0
60 -4 -61 0
-60 4 -61 0
60 4 61 0
-60 -4 61 0
61 3 -62 0
-61 -3 -62 0
61 -3 62 0
-61 3 62 0
63 -62 0
63 11 0
62 -11 -63 0
59 63 -64 0
-59 -63 -64 0
59 -63 64 0
-59 63 64 0
-4 31 -65 0
4 -31 -65 0
-4 -31 65 0
4 31 65 0
-66 10 0
-66 65 0
-10 -65 66 0
67 64 0
67 -66 0
-64 66 -67 0
2 28 -69 0
-2 -28 -69 0
2 -28 69 0
-2 28 69 0
60 -69 -70 0
-60 69 -70 0
60 69 70 0
-60 -69 70 0
-70 52 -71 0
70 -52 -71 0
-70 -52 71 0
70 52 71 0
-72 -68 0
-72 71 0
68 -71 72 0
-73 55 0
-73 5 0
-55 -5 73 0
74 -72 0
74 -73 0
72 73 -74 0
67 -74 -75 0
-67 74 -75 0
67 74 75 0
-67 -74 75 0
-1 -7 -76 0
1 7 -76 0
-1 7 76 0
1 -7 76 0
-77 -61 0
-77 -7 0
61 7 77 0
-78 -42 0
-78 77 0
42 -77 78 0
10 -78 -79 0
-10 78 -79 0
10 78 79 0
-10 -78 79 0
-31 -79 -80 0
31 79 -80 0
-31 79 80 0
31 -79 80 0
-2 80 -81 0
2 -80 -81 0
-2 -80 81 0
2 80 81 0
82 -76 0
82 -81 0
76 81 -82 0
83 -75 0
83 -82 0
75 82 -83 0
-53 -83 -84 0
53 83 -84 0
-53 83 84 0
53 -83 84 0
85 29 0
85 58 0
-29 -58 -85 0
-86 -85 0
-86 36 0
85 -36 86 0
87 -1 0
87 11 0
1 -11 -87 0
-88 -78 0
-88 -44 0
78 44 88 0
-89 -87 0
-89 -88 0
87 88 89 0
-90 86 0
-90 89 0
-86 -89 90 0
-91 -84 0
-91 90 0
84 -90 91 0
92 51 0
92 -91 0
-51 91 -92 0
6 -1 -93 0
-6 1 -93 0
6 1 93 0
-6 -1 93 0
-94 -57 0
-94 54 0
57 -54 94 0
-95 -93 0
-95 -94 0
93 94 95 0
92 95 -96 0
-92 -95 -96 0
92 -95 96 0
-92 95 96 0
97 -36 0
97 43 0
36 -43 -97 0
-98 -80 0
-98 -97 0
80 97 98 0
-99 -60 0
-99 -6 0
60 6 99 0
100 -99 0
100 3 0
99 -3 -100 0
-101 -5 0
-101 85 0
5 -85 101 0
101 -102 0
-101 -102 0
103 22 0
103 101 0
-22 -101 -103 0
104 -103 0
104 56 0
103 -56 -104 0
102 104 -105 0
-102 -104 -105 0
102 -104 105 0
-102 104 105 0
-106 -100 0
-106 -105 0
100 105 106 0
-107 98 0
-107 106 0
-98 -106 107 0
108 -96 0
108 107 0
96 -107 -108 0
-109 6 -110 0
109 -6 -110 0
-109 -6 110 0
109 6 110 0
111 60 0
111 -13 0
-60 13 -111 0
-78 111 -112 0
78 -111 -112 0
-78 -111 112 0
78 111 112 0
113 110 0
113 -112 0
-110 112 -113 0
-114 108 0
-114 -113 0
-108 113 114 0
-31 -101 -10 80 46 13 0
-71 -33 -18 -67 0
-22 66 0
-99 114 -6 0
-41 -19 -73 80 -15 0
83 -43 60 55 5 0
-113 -23 0
-53 -104 -24 -85 -47 0
114 -59 34 0
2 -59 0
89 -74 0
111 97 0
81 89 34 -17 -16 0
-63 29 0
-6 -69 47 49 -41 0
-2 14 30 0
-36 -48 0
-12 6 -92 -108 0
91 -3 8 -9 97 0
4 98 -89 6 -103 0
-73 -54 -64 -44 0
52 -76 97 66 7 17 0
-83 45 3 79 0
100 -40 0
-95 -2 -110 0
-49 -14 2 0
104 -100 -10 37 -25 0
-73 -3 33 -99 -75 0
53 -33 -89 -78 64 45 0
-68 -65 -44 -13 0
-75 47 -105 -10 0
-28 93 -36 -73 -39 9 0
35 -50 -26 -79 -24 0
70 49 112 37 -106 0
39 111 0
-66 72 -74 0
6 -78 0
32 114 0
-104 -81 -1 -25 0
-11 76 44 109 8 0
-70 -59 -79 23 -73 -81 0
98 -28 0
-80 59 -114 0
-64 109 0
-64 82 81 62 102 -46 0
64 -99 0
-27 105 60 -80 0
78 -41 37 17 6 95 0
-8 101 -68 -99 0
114 0
